p cnf 186 464
a 2 4 10 12 24 26 29 32 46 49 124 138 56 58 68 174 1 9 18 23 38 44 55 63 67 74 0
d 19 1 9 0
d 134 18 23 0
d 132 124 138 0
d 155 55 63 0
d 149 38 44 0
d 163 67 74 0
d 3 2 0
d 5 4 0
d 6 2 4 0
d 7 1 2 4 0
d 8 1 2 4 0
d 11 10 0
d 13 12 0
d 14 10 12 0
d 15 9 10 12 0
d 16 9 10 12 0
d 17 1 2 4 9 10 12 0
d 20 18 1 9 0
d 21 18 1 9 0
d 22 1 2 4 9 10 12 18 0
d 25 24 0
d 27 26 0
d 28 24 26 0
d 30 29 0
d 31 24 26 29 0
d 33 32 0
d 34 24 26 29 32 0
d 35 23 24 26 29 32 0
d 36 23 24 26 29 32 0
d 37 1 2 4 9 10 12 18 23 24 26 29 32 0
d 39 10 12 24 0
d 40 10 12 24 26 0
d 41 38 10 12 24 26 0
d 42 38 10 12 24 26 0
d 43 1 2 4 9 10 12 18 23 24 26 29 32 38 0
d 45 29 32 0
d 47 46 0
d 48 29 32 46 0
d 50 49 0
d 51 29 32 46 49 0
d 52 44 29 32 46 49 0
d 53 44 29 32 46 49 0
d 54 1 2 4 9 10 12 18 23 24 26 29 32 38 44 46 49 0
d 57 56 0
d 59 56 58 0
d 60 55 56 58 0
d 61 55 56 58 0
d 62 1 2 4 9 10 12 18 23 24 26 29 32 38 44 46 49 55 56 58 0
d 64 63 1 9 0
d 65 63 1 9 0
d 66 1 2 4 9 10 12 18 23 24 26 29 32 38 44 46 49 55 56 58 63 0
d 69 68 2 0
d 70 68 2 4 0
d 71 67 68 2 4 0
d 72 67 68 2 4 0
d 73 1 2 4 9 10 12 18 23 24 26 29 32 38 44 46 49 55 56 58 63 67 68 0
d 75 74 10 12 24 26 0
d 76 74 10 12 24 26 0
d 77 1 2 4 9 10 12 18 23 24 26 29 32 38 44 46 49 55 56 58 63 67 68 74 0
d 78 2 0
d 79 2 4 0
d 80 2 4 0
d 81 2 4 0
d 82 10 2 0
d 83 10 2 4 0
d 84 10 2 4 0
d 85 2 4 10 0
d 86 2 4 10 0
d 87 2 4 10 12 0
d 88 2 4 10 12 0
d 89 2 4 10 12 0
d 90 24 2 0
d 91 24 2 4 0
d 92 10 12 24 2 4 0
d 93 10 12 24 2 4 0
d 94 2 4 10 12 24 0
d 95 24 26 0
d 96 24 26 1 9 0
d 97 2 4 10 12 0
d 98 24 26 2 4 10 12 0
d 99 24 26 1 9 2 4 10 12 0
d 100 2 4 10 12 24 26 1 9 0
d 101 29 2 0
d 102 29 2 4 0
d 103 29 2 4 10 12 24 26 0
d 104 29 2 4 10 12 24 26 0
d 105 2 4 10 12 24 26 1 9 29 0
d 106 24 26 29 32 0
d 107 1 9 24 26 29 32 0
d 108 2 4 10 12 24 26 29 32 0
d 109 1 9 24 26 29 32 2 4 10 12 0
d 110 2 4 10 12 24 26 1 9 29 32 0
d 111 46 2 0
d 112 46 2 4 0
d 113 29 32 46 2 4 0
d 114 10 12 24 26 29 32 46 2 4 0
d 115 10 12 24 26 29 32 46 2 4 0
d 116 2 4 10 12 24 26 1 9 29 32 46 0
d 117 46 49 0
d 118 46 49 1 9 0
d 119 24 26 29 32 46 49 1 9 0
d 120 46 49 2 4 10 12 0
d 121 24 26 29 32 46 49 2 4 10 12 0
d 122 24 26 29 32 46 49 1 9 2 4 10 12 0
d 123 2 4 10 12 24 26 1 9 29 32 46 49 0
d 125 124 2 0
d 126 124 2 4 0
d 127 124 2 4 10 12 24 26 0
d 128 29 32 46 49 124 2 4 10 12 24 26 0
d 129 29 32 46 49 124 2 4 10 12 24 26 0
d 130 2 4 10 12 24 26 1 9 29 32 46 49 124 0
d 131 46 49 0
d 133 46 49 124 138 0
d 135 46 49 124 138 18 23 0
d 136 124 0
d 137 46 49 124 0
d 139 46 49 124 138 0
d 140 2 4 10 12 24 26 29 32 0
d 141 46 49 124 138 2 4 10 12 24 26 29 32 0
d 142 46 49 124 138 18 23 2 4 10 12 24 26 29 32 0
d 143 2 4 10 12 24 26 1 9 29 32 46 49 124 138 18 23 0
d 144 138 0
d 145 124 138 0
d 146 56 2 0
d 147 56 2 4 0
d 148 124 138 56 2 4 0
d 150 124 138 56 2 4 38 44 0
d 151 10 12 24 26 29 32 46 49 0
d 152 124 138 56 2 4 10 12 24 26 29 32 46 49 0
d 153 124 138 56 2 4 38 44 10 12 24 26 29 32 46 49 0
d 154 2 4 10 12 24 26 1 9 29 32 46 49 124 138 18 23 56 38 44 0
d 156 46 49 124 138 0
d 157 24 26 29 32 46 49 124 138 0
d 158 55 63 24 26 29 32 46 49 124 138 0
d 159 56 58 2 4 10 12 0
d 160 56 58 2 4 10 12 24 26 29 32 46 49 124 138 0
d 161 55 63 24 26 29 32 46 49 124 138 56 58 2 4 10 12 0
d 162 2 4 10 12 24 26 1 9 29 32 46 49 124 138 18 23 56 38 44 55 63 58 0
d 164 124 138 56 0
d 165 58 0
d 166 124 138 56 58 0
d 167 29 32 46 49 124 138 56 58 0
d 168 67 74 29 32 46 49 124 138 56 58 0
d 169 68 2 4 10 12 24 26 0
d 170 68 2 4 10 12 24 26 29 32 46 49 124 138 56 58 0
d 171 67 74 29 32 46 49 124 138 56 58 68 2 4 10 12 24 26 0
d 172 2 4 10 12 24 26 1 9 29 32 46 49 124 138 18 23 56 38 44 55 63 58 67 74 68 0
d 173 56 58 0
d 175 68 174 0
d 176 56 58 68 174 0
d 177 46 49 124 138 56 58 68 174 0
d 178 18 23 46 49 124 138 56 58 68 174 0
d 179 68 0
d 180 56 58 68 0
d 181 56 58 68 174 0
d 182 46 49 124 138 56 58 68 174 0
d 183 2 4 10 12 24 26 29 32 46 49 124 138 56 58 68 174 0
d 184 18 23 46 49 124 138 56 58 68 174 2 4 10 12 24 26 29 32 0
d 185 2 4 10 12 24 26 1 9 29 32 46 49 124 138 18 23 56 38 44 55 63 58 67 74 68 174 0
d 186 1 2 4 9 10 12 18 23 24 26 29 32 38 44 46 49 55 56 58 63 67 68 74 124 138 174 0
3 2 0
-3 -2 0
5 4 0
-5 -4 0
-6 3 0
-6 5 0
6 -3 -5 0
7 -1 -6 0
7 1 6 0
-7 -1 6 0
-7 1 -6 0
8 7 0
-8 -7 0
11 10 0
-11 -10 0
13 12 0
-13 -12 0
-14 11 0
-14 13 0
14 -11 -13 0
15 -9 -14 0
15 9 14 0
-15 -9 14 0
-15 9 -14 0
16 15 0
-16 -15 0
17 -8 0
17 -16 0
-17 8 16 0
20 -18 -19 0
20 18 19 0
-20 -18 19 0
-20 18 -19 0
21 20 0
-21 -20 0
22 -17 0
22 -21 0
-22 17 21 0
25 24 0
-25 -24 0
27 26 0
-27 -26 0
-28 25 0
-28 27 0
28 -25 -27 0
30 29 0
-30 -29 0
-31 28 0
-31 30 0
31 -28 -30 0
33 32 0
-33 -32 0
-34 31 0
-34 33 0
34 -31 -33 0
35 -23 -34 0
35 23 34 0
-35 -23 34 0
-35 23 -34 0
36 35 0
-36 -35 0
37 -22 0
37 -36 0
-37 22 36 0
-39 14 0
-39 25 0
39 -14 -25 0
-40 39 0
-40 27 0
40 -39 -27 0
41 -38 -40 0
41 38 40 0
-41 -38 40 0
-41 38 -40 0
42 41 0
-42 -41 0
43 -37 0
43 -42 0
-43 37 42 0
-45 30 0
-45 33 0
45 -30 -33 0
47 46 0
-47 -46 0
-48 45 0
-48 47 0
48 -45 -47 0
50 49 0
-50 -49 0
-51 48 0
-51 50 0
51 -48 -50 0
52 -44 -51 0
52 44 51 0
-52 -44 51 0
-52 44 -51 0
53 52 0
-53 -52 0
54 -43 0
54 -53 0
-54 43 53 0
57 56 0
-57 -56 0
-59 57 0
-59 58 0
59 -57 -58 0
60 -55 -59 0
60 55 59 0
-60 -55 59 0
-60 55 -59 0
61 60 0
-61 -60 0
62 -54 0
62 -61 0
-62 54 61 0
64 -63 -19 0
64 63 19 0
-64 -63 19 0
-64 63 -19 0
65 64 0
-65 -64 0
66 -62 0
66 -65 0
-66 62 65 0
-69 68 0
-69 3 0
69 -68 -3 0
-70 69 0
-70 5 0
70 -69 -5 0
71 -67 -70 0
71 67 70 0
-71 -67 70 0
-71 67 -70 0
72 71 0
-72 -71 0
73 -66 0
73 -72 0
-73 66 72 0
75 -74 -40 0
75 74 40 0
-75 -74 40 0
-75 74 -40 0
76 75 0
-76 -75 0
77 -73 0
77 -76 0
-77 73 76 0
78 -2 -2 0
78 2 2 0
-78 -2 2 0
-78 2 -2 0
-79 3 0
-79 4 0
79 -3 -4 0
80 -79 -79 0
80 79 79 0
-80 -79 79 0
-80 79 -79 0
-81 78 0
-81 80 0
81 -78 -80 0
-82 10 0
-82 3 0
82 -10 -3 0
-83 82 0
-83 5 0
83 -82 -5 0
84 -83 -83 0
84 83 83 0
-84 -83 83 0
-84 83 -83 0
-85 81 0
-85 84 0
85 -81 -84 0
-86 6 0
-86 11 0
86 -6 -11 0
-87 86 0
-87 12 0
87 -86 -12 0
88 -87 -87 0
88 87 87 0
-88 -87 87 0
-88 87 -87 0
-89 85 0
-89 88 0
89 -85 -88 0
-90 24 0
-90 3 0
90 -24 -3 0
-91 90 0
-91 5 0
91 -90 -5 0
-92 14 0
-92 91 0
92 -14 -91 0
93 -92 -92 0
93 92 92 0
-93 -92 92 0
-93 92 -92 0
-94 89 0
-94 93 0
94 -89 -93 0
-95 25 0
-95 26 0
95 -25 -26 0
-96 95 0
-96 19 0
96 -95 -19 0
-97 86 0
-97 13 0
97 -86 -13 0
-98 95 0
-98 97 0
98 -95 -97 0
99 -96 -98 0
99 96 98 0
-99 -96 98 0
-99 96 -98 0
-100 94 0
-100 99 0
100 -94 -99 0
-101 29 0
-101 3 0
101 -29 -3 0
-102 101 0
-102 5 0
102 -101 -5 0
-103 102 0
-103 40 0
103 -102 -40 0
104 -103 -103 0
104 103 103 0
-104 -103 103 0
-104 103 -103 0
-105 100 0
-105 104 0
105 -100 -104 0
-106 31 0
-106 32 0
106 -31 -32 0
-107 19 0
-107 106 0
107 -19 -106 0
-108 97 0
-108 106 0
108 -97 -106 0
109 -107 -108 0
109 107 108 0
-109 -107 108 0
-109 107 -108 0
-110 105 0
-110 109 0
110 -105 -109 0
-111 46 0
-111 3 0
111 -46 -3 0
-112 111 0
-112 5 0
112 -111 -5 0
-113 45 0
-113 112 0
113 -45 -112 0
-114 40 0
-114 113 0
114 -40 -113 0
115 -114 -114 0
115 114 114 0
-115 -114 114 0
-115 114 -114 0
-116 110 0
-116 115 0
116 -110 -115 0
-117 47 0
-117 49 0
117 -47 -49 0
-118 117 0
-118 19 0
118 -117 -19 0
-119 34 0
-119 118 0
119 -34 -118 0
-120 117 0
-120 97 0
120 -117 -97 0
-121 34 0
-121 120 0
121 -34 -120 0
122 -119 -121 0
122 119 121 0
-122 -119 121 0
-122 119 -121 0
-123 116 0
-123 122 0
123 -116 -122 0
-125 124 0
-125 3 0
125 -124 -3 0
-126 125 0
-126 5 0
126 -125 -5 0
-127 126 0
-127 40 0
127 -126 -40 0
-128 51 0
-128 127 0
128 -51 -127 0
129 -128 -128 0
129 128 128 0
-129 -128 128 0
-129 128 -128 0
-130 123 0
-130 129 0
130 -123 -129 0
-131 47 0
-131 50 0
131 -47 -50 0
-133 131 0
-133 132 0
133 -131 -132 0
-135 133 0
-135 134 0
135 -133 -134 0
136 124 0
-136 -124 0
-137 131 0
-137 136 0
137 -131 -136 0
-139 137 0
-139 138 0
139 -137 -138 0
-140 97 0
-140 34 0
140 -97 -34 0
-141 139 0
-141 140 0
141 -139 -140 0
142 -135 -141 0
142 135 141 0
-142 -135 141 0
-142 135 -141 0
-143 130 0
-143 142 0
143 -130 -142 0
144 138 0
-144 -138 0
-145 136 0
-145 144 0
145 -136 -144 0
-146 56 0
-146 3 0
146 -56 -3 0
-147 146 0
-147 5 0
147 -146 -5 0
-148 145 0
-148 147 0
148 -145 -147 0
-150 148 0
-150 149 0
150 -148 -149 0
-151 40 0
-151 51 0
151 -40 -51 0
-152 148 0
-152 151 0
152 -148 -151 0
153 -150 -152 0
153 150 152 0
-153 -150 152 0
-153 150 -152 0
-154 143 0
-154 153 0
154 -143 -153 0
-156 137 0
-156 144 0
156 -137 -144 0
-157 34 0
-157 156 0
157 -34 -156 0
-158 155 0
-158 157 0
158 -155 -157 0
-159 59 0
-159 97 0
159 -59 -97 0
-160 159 0
-160 157 0
160 -159 -157 0
161 -158 -160 0
161 158 160 0
-161 -158 160 0
-161 158 -160 0
-162 154 0
-162 161 0
162 -154 -161 0
-164 145 0
-164 57 0
164 -145 -57 0
165 58 0
-165 -58 0
-166 164 0
-166 165 0
166 -164 -165 0
-167 51 0
-167 166 0
167 -51 -166 0
-168 163 0
-168 167 0
168 -163 -167 0
-169 70 0
-169 40 0
169 -70 -40 0
-170 169 0
-170 167 0
170 -169 -167 0
171 -168 -170 0
171 168 170 0
-171 -168 170 0
-171 168 -170 0
-172 162 0
-172 171 0
172 -162 -171 0
-173 57 0
-173 165 0
173 -57 -165 0
175 -68 0
175 -174 0
-175 68 174 0
-176 173 0
-176 175 0
176 -173 -175 0
-177 156 0
-177 176 0
177 -156 -176 0
-178 134 0
-178 177 0
178 -134 -177 0
179 68 0
-179 -68 0
-180 173 0
-180 179 0
180 -173 -179 0
-181 180 0
-181 174 0
181 -180 -174 0
-182 156 0
-182 181 0
182 -156 -181 0
-183 140 0
-183 182 0
183 -140 -182 0
184 -178 -183 0
184 178 183 0
-184 -178 183 0
-184 178 -183 0
-185 172 0
-185 184 0
185 -172 -184 0
186 -77 0
186 -185 0
-186 77 185 0
186 0
